;---
; using 8-bit bit-vectors as characters
; check membership of .Net regex
; regexA = [\w-]+@([\w-]+\.)+[\w-]+
;---
;(set-info :status sat)
;(set-option :print-success true)
(set-logic QF_S)

(declare-const regexA RegLan)
(declare-const x String)

;witness1: "\u00E2@8.29\u00CD:"
(define-fun Witness1 () String (str.++ "\u{e2}" (str.++ "@" (str.++ "8" (str.++ "." (str.++ "2" (str.++ "9" (str.++ "\u{cd}" (str.++ ":" "")))))))))
;witness2: "6@\u00C2.z\u00AA\u00BA"
(define-fun Witness2 () String (str.++ "6" (str.++ "@" (str.++ "\u{c2}" (str.++ "." (str.++ "z" (str.++ "\u{aa}" (str.++ "\u{ba}" ""))))))))

(assert (= regexA (re.++ (re.+ (re.union (re.range "-" "-")(re.union (re.range "0" "9")(re.union (re.range "A" "Z")(re.union (re.range "_" "_")(re.union (re.range "a" "z")(re.union (re.range "\u{aa}" "\u{aa}")(re.union (re.range "\u{b5}" "\u{b5}")(re.union (re.range "\u{ba}" "\u{ba}")(re.union (re.range "\u{c0}" "\u{d6}")(re.union (re.range "\u{d8}" "\u{f6}") (re.range "\u{f8}" "\u{ff}"))))))))))))(re.++ (re.range "@" "@")(re.++ (re.+ (re.++ (re.+ (re.union (re.range "-" "-")(re.union (re.range "0" "9")(re.union (re.range "A" "Z")(re.union (re.range "_" "_")(re.union (re.range "a" "z")(re.union (re.range "\u{aa}" "\u{aa}")(re.union (re.range "\u{b5}" "\u{b5}")(re.union (re.range "\u{ba}" "\u{ba}")(re.union (re.range "\u{c0}" "\u{d6}")(re.union (re.range "\u{d8}" "\u{f6}") (re.range "\u{f8}" "\u{ff}")))))))))))) (re.range "." "."))) (re.+ (re.union (re.range "-" "-")(re.union (re.range "0" "9")(re.union (re.range "A" "Z")(re.union (re.range "_" "_")(re.union (re.range "a" "z")(re.union (re.range "\u{aa}" "\u{aa}")(re.union (re.range "\u{b5}" "\u{b5}")(re.union (re.range "\u{ba}" "\u{ba}")(re.union (re.range "\u{c0}" "\u{d6}")(re.union (re.range "\u{d8}" "\u{f6}") (re.range "\u{f8}" "\u{ff}")))))))))))))))))

;check that the regex contains some x
(assert (str.in_re x regexA))
;check also the concrete witnesses
(assert (str.in_re Witness1 regexA))
(assert (str.in_re Witness2 regexA))
(check-sat)
